SumColouring/MiniZinc model/Experiments/14_0.85_1.col.dzn
% Data file generated from RandomInstances/14_0.85_1.col DIMACS file
size = 14;

chi = 10;

adjacency = [|0,1,1,1,1,1,1,1,1,1,1,1,1,0,
|1,0,1,1,1,1,0,1,1,1,1,0,1,0,
|1,1,0,1,0,0,1,1,1,1,1,1,1,1,
|1,1,1,0,1,1,0,1,1,1,1,1,1,1,
|1,1,0,1,0,1,1,1,1,1,1,0,1,1,
|1,1,0,1,1,0,1,1,1,1,1,1,1,0,
|1,0,1,0,1,1,0,1,0,1,1,1,1,1,
|1,1,1,1,1,1,1,0,1,1,1,0,1,1,
|1,1,1,1,1,1,0,1,0,1,1,1,1,1,
|1,1,1,1,1,1,1,1,1,0,1,1,1,1,
|1,1,1,1,1,1,1,1,1,1,0,1,1,0,
|1,0,1,1,0,1,1,0,1,1,1,0,0,1,
|1,1,1,1,1,1,1,1,1,1,1,0,0,1,
|0,0,1,1,1,0,1,1,1,1,0,1,1,0,
|];